20180323 78400.00 35400.00
20171128 78025.06 35428.94
20170630 78025.06 35428.94
20161231 78025.06 35428.93
20161031 78025.06 35428.93
20160705 78025.06 35400.29
20151231 39012.53 17700.15
20151029 39012.53 21166.91
